c CNF file corresponding to a (partial) station packing problem.
p cnf 3165 229
1 2 3 4 5 6 7 8 9 10 11 12 13 14 0
-1 -2 0
-1 -3 0
-1 -4 0
-1 -5 0
-1 -6 0
-1 -7 0
-1 -8 0
-1 -9 0
-1 -10 0
-1 -11 0
-1 -12 0
-1 -13 0
-1 -14 0
-2 -3 0
-2 -4 0
-2 -5 0
-2 -6 0
-2 -7 0
-2 -8 0
-2 -9 0
-2 -10 0
-2 -11 0
-2 -12 0
-2 -13 0
-2 -14 0
-3 -4 0
-3 -5 0
-3 -6 0
-3 -7 0
-3 -8 0
-3 -9 0
-3 -10 0
-3 -11 0
-3 -12 0
-3 -13 0
-3 -14 0
-4 -5 0
-4 -6 0
-4 -7 0
-4 -8 0
-4 -9 0
-4 -10 0
-4 -11 0
-4 -12 0
-4 -13 0
-4 -14 0
-5 -6 0
-5 -7 0
-5 -8 0
-5 -9 0
-5 -10 0
-5 -11 0
-5 -12 0
-5 -13 0
-5 -14 0
-6 -7 0
-6 -8 0
-6 -9 0
-6 -10 0
-6 -11 0
-6 -12 0
-6 -13 0
-6 -14 0
-7 -8 0
-7 -9 0
-7 -10 0
-7 -11 0
-7 -12 0
-7 -13 0
-7 -14 0
-8 -9 0
-8 -10 0
-8 -11 0
-8 -12 0
-8 -13 0
-8 -14 0
-9 -10 0
-9 -11 0
-9 -12 0
-9 -13 0
-9 -14 0
-10 -11 0
-10 -12 0
-10 -13 0
-10 -14 0
-11 -12 0
-11 -13 0
-11 -14 0
-12 -13 0
-12 -14 0
-13 -14 0
3149 3150 3151 3152 3153 3154 3155 3156 3157 3158 3159 3160 3161 3162 3163 3164 3165 0
-3149 -3150 0
-3149 -3151 0
-3149 -3152 0
-3149 -3153 0
-3149 -3154 0
-3149 -3155 0
-3149 -3156 0
-3149 -3157 0
-3149 -3158 0
-3149 -3159 0
-3149 -3160 0
-3149 -3161 0
-3149 -3162 0
-3149 -3163 0
-3149 -3164 0
-3149 -3165 0
-3150 -3151 0
-3150 -3152 0
-3150 -3153 0
-3150 -3154 0
-3150 -3155 0
-3150 -3156 0
-3150 -3157 0
-3150 -3158 0
-3150 -3159 0
-3150 -3160 0
-3150 -3161 0
-3150 -3162 0
-3150 -3163 0
-3150 -3164 0
-3150 -3165 0
-3151 -3152 0
-3151 -3153 0
-3151 -3154 0
-3151 -3155 0
-3151 -3156 0
-3151 -3157 0
-3151 -3158 0
-3151 -3159 0
-3151 -3160 0
-3151 -3161 0
-3151 -3162 0
-3151 -3163 0
-3151 -3164 0
-3151 -3165 0
-3152 -3153 0
-3152 -3154 0
-3152 -3155 0
-3152 -3156 0
-3152 -3157 0
-3152 -3158 0
-3152 -3159 0
-3152 -3160 0
-3152 -3161 0
-3152 -3162 0
-3152 -3163 0
-3152 -3164 0
-3152 -3165 0
-3153 -3154 0
-3153 -3155 0
-3153 -3156 0
-3153 -3157 0
-3153 -3158 0
-3153 -3159 0
-3153 -3160 0
-3153 -3161 0
-3153 -3162 0
-3153 -3163 0
-3153 -3164 0
-3153 -3165 0
-3154 -3155 0
-3154 -3156 0
-3154 -3157 0
-3154 -3158 0
-3154 -3159 0
-3154 -3160 0
-3154 -3161 0
-3154 -3162 0
-3154 -3163 0
-3154 -3164 0
-3154 -3165 0
-3155 -3156 0
-3155 -3157 0
-3155 -3158 0
-3155 -3159 0
-3155 -3160 0
-3155 -3161 0
-3155 -3162 0
-3155 -3163 0
-3155 -3164 0
-3155 -3165 0
-3156 -3157 0
-3156 -3158 0
-3156 -3159 0
-3156 -3160 0
-3156 -3161 0
-3156 -3162 0
-3156 -3163 0
-3156 -3164 0
-3156 -3165 0
-3157 -3158 0
-3157 -3159 0
-3157 -3160 0
-3157 -3161 0
-3157 -3162 0
-3157 -3163 0
-3157 -3164 0
-3157 -3165 0
-3158 -3159 0
-3158 -3160 0
-3158 -3161 0
-3158 -3162 0
-3158 -3163 0
-3158 -3164 0
-3158 -3165 0
-3159 -3160 0
-3159 -3161 0
-3159 -3162 0
-3159 -3163 0
-3159 -3164 0
-3159 -3165 0
-3160 -3161 0
-3160 -3162 0
-3160 -3163 0
-3160 -3164 0
-3160 -3165 0
-3161 -3162 0
-3161 -3163 0
-3161 -3164 0
-3161 -3165 0
-3162 -3163 0
-3162 -3164 0
-3162 -3165 0
-3163 -3164 0
-3163 -3165 0
-3164 -3165 0
